(declare-const x0 Real)
(assert (<= 0.100000 x0))
(declare-const x1 Real)
(assert (<= 0.100000 x1))
(declare-const x2 Real)
(assert (<= 0.100000 x2))
(declare-const x3 Real)
(assert (<= 0.100000 x3))
(declare-const x4 Real)
(assert (<= 0.100000 x4))
(declare-const x5 Real)
(assert (<= 0.100000 x5))
(declare-const x6 Real)
(assert (<= 0.100000 x6))
(declare-const x7 Real)
(assert (<= 0.100000 x7))
(declare-const x8 Real)
(assert (<= 0.100000 x8))
(declare-const x9 Real)
(assert (<= 0.100000 x9))
(declare-const x10 Real)
(assert (<= 0.100000 x10))
(declare-const x11 Real)
(assert (<= 0.100000 x11))

(assert (<= (- 1.0) (+ (* (- 0.053674) x0) (* (- 0.021864) x1) (* (- 0.097734) x9) (- (* (* 0.006694 x2) x3)))))
(assert (<= (- 1.0) (+ (* (- 0.000001) x0) (* (- 0.000010) x1) (* (- 0.000001) x9) (- (+ (* (* 0.000000 x2) x8) (/ (* 0.000000 x3) x8) (/ (* 0.010000 x4) x8) (* (* 0.000100 x5) x8) (* (* 0.108986 x2) x3) (/ (* (* 0.000161 x1) x3) x8) (* (* (* 0.000000 x1) x2) x3) (/ (* (* 0.000002 x1) x3) (* x2 (^ x8 2.0))) (/ (* 0.001000 x7) x8))))))
(assert (<= (- 1.0) (+ (* (- 0.000001) x0) (* (- 0.000010) x1) (* (- 0.000000) x2) (* (- 0.000000) x3) (* (- 0.001000) x4) (* (- 0.000010) x6) (* (- 0.000001) x9) (* (- 0.001000) x10) (* (- 0.000100) x11) (- (+ (* (* 0.108986 x2) x3) (* (* 0.000016 x1) x3) (* (* (* 0.000000 x1) x2) x3) (/ (* (* 0.000000 x1) x3) x2) (* (* 0.000112 x0) x6))))))

(minimize
	(* 100000.0 (* (* (* (* (* (* (* (* (* (* (^ x0 (- 0.001332)) (^ x1 (- 0.002271))) (^ x9 (- 0.002485))) (^ x2 (- 4.670000))) (^ x3 (- 4.671973))) (^ x4 (- 0.008140))) (^ x5 (- 0.008092))) (^ x10 (- 0.005000))) (^ x6 (- 0.000909))) (^ x7 (- 0.000880))) (^ x11 (- 0.001190))))
)
(check-sat)
(get-objectives)
(exit)

